100
128
31
58
45
21
2
43
61
36
46
49
7
23
56
28
38
33
16
17
21
48
27
30
19
14
29
53
64
64
46
27
41
25
63
57
19
57
32
59
48
26
21
27
20
39
55
51
20
47
36
20
22
19
15
16
7
4
46
29
61
26
63
25
4
1
45
2
3
33
45
21
32
27
57
31
30
58
63
53
38
45
30
17
33
53
18
29
61
17
38
25
30
16
3
3
36
21
31
42
21
34